c nIsolatedPIs 0
c maxPI 32
p cnf 247 646
c gate 33 -5 -21 0
-5 -33 0
-21 -33 0
5 21 33 0
c gate 34 -4 -20 0
-4 -34 0
-20 -34 0
4 20 34 0
c gate 35 -33 -34 0
-33 -35 0
-34 -35 0
33 34 35 0
c gate 36 1 17 0
1 -36 0
17 -36 0
-1 -17 36 0
c gate 37 2 18 0
2 -37 0
18 -37 0
-2 -18 37 0
c gate 38 -36 -37 0
-36 -38 0
-37 -38 0
36 37 38 0
c gate 39 -3 19 0
-3 -39 0
19 -39 0
3 -19 39 0
c gate 40 3 -19 0
3 -40 0
-19 -40 0
-3 19 40 0
c gate 41 -39 -40 0
-39 -41 0
-40 -41 0
39 40 41 0
c gate 42 -2 -18 0
-2 -42 0
-18 -42 0
2 18 42 0
c gate 43 -41 -42 0
-41 -43 0
-42 -43 0
41 42 43 0
c gate 44 -38 43 0
-38 -44 0
43 -44 0
38 -43 44 0
c gate 45 3 19 0
3 -45 0
19 -45 0
-3 -19 45 0
c gate 46 4 20 0
4 -46 0
20 -46 0
-4 -20 46 0
c gate 47 -45 -46 0
-45 -47 0
-46 -47 0
45 46 47 0
c gate 48 -44 47 0
-44 -48 0
47 -48 0
44 -47 48 0
c gate 49 35 -48 0
35 -49 0
-48 -49 0
-35 48 49 0
c gate 50 -6 -22 0
-6 -50 0
-22 -50 0
6 22 50 0
c gate 51 6 22 0
6 -51 0
22 -51 0
-6 -22 51 0
c gate 52 -50 -51 0
-50 -52 0
-51 -52 0
50 51 52 0
c gate 53 5 21 0
5 -53 0
21 -53 0
-5 -21 53 0
c gate 54 52 -53 0
52 -54 0
-53 -54 0
-52 53 54 0
c gate 55 -49 54 0
-49 -55 0
54 -55 0
49 -54 55 0
c gate 56 36 42 0
36 -56 0
42 -56 0
-36 -42 56 0
c gate 57 -46 -53 0
-46 -57 0
-53 -57 0
46 53 57 0
c gate 58 35 57 0
35 -58 0
57 -58 0
-35 -57 58 0
c gate 59 -41 58 0
-41 -59 0
58 -59 0
41 -58 59 0
c gate 60 56 59 0
56 -60 0
59 -60 0
-56 -59 60 0
c gate 61 -55 -60 0
-55 -61 0
-60 -61 0
55 60 61 0
c gate 62 -10 26 0
-10 -62 0
26 -62 0
10 -26 62 0
c gate 63 -9 25 0
-9 -63 0
25 -63 0
9 -25 63 0
c gate 64 8 -24 0
8 -64 0
-24 -64 0
-8 24 64 0
c gate 65 9 -25 0
9 -65 0
-25 -65 0
-9 25 65 0
c gate 66 -64 -65 0
-64 -66 0
-65 -66 0
64 65 66 0
c gate 67 8 24 0
8 -67 0
24 -67 0
-8 -24 67 0
c gate 68 -8 -24 0
-8 -68 0
-24 -68 0
8 24 68 0
c gate 69 -67 -68 0
-67 -69 0
-68 -69 0
67 68 69 0
c gate 70 6 -22 0
6 -70 0
-22 -70 0
-6 22 70 0
c gate 71 -2 18 0
-2 -71 0
18 -71 0
2 -18 71 0
c gate 72 -1 17 0
-1 -72 0
17 -72 0
1 -17 72 0
c gate 73 -71 -72 0
-71 -73 0
-72 -73 0
71 72 73 0
c gate 74 2 -18 0
2 -74 0
-18 -74 0
-2 18 74 0
c gate 75 -40 -74 0
-40 -75 0
-74 -75 0
40 74 75 0
c gate 76 -73 75 0
-73 -76 0
75 -76 0
73 -75 76 0
c gate 77 -4 20 0
-4 -77 0
20 -77 0
4 -20 77 0
c gate 78 -39 -77 0
-39 -78 0
-77 -78 0
39 77 78 0
c gate 79 -76 78 0
-76 -79 0
78 -79 0
76 -78 79 0
c gate 80 5 -21 0
5 -80 0
-21 -80 0
-5 21 80 0
c gate 81 4 -20 0
4 -81 0
-20 -81 0
-4 20 81 0
c gate 82 -80 -81 0
-80 -82 0
-81 -82 0
80 81 82 0
c gate 83 -79 82 0
-79 -83 0
82 -83 0
79 -82 83 0
c gate 84 -5 21 0
-5 -84 0
21 -84 0
5 -21 84 0
c gate 85 -52 -84 0
-52 -85 0
-84 -85 0
52 84 85 0
c gate 86 -83 85 0
-83 -86 0
85 -86 0
83 -85 86 0
c gate 87 -70 -86 0
-70 -87 0
-86 -87 0
70 86 87 0
c gate 88 -7 -23 0
-7 -88 0
-23 -88 0
7 23 88 0
c gate 89 7 23 0
7 -89 0
23 -89 0
-7 -23 89 0
c gate 90 -88 -89 0
-88 -90 0
-89 -90 0
88 89 90 0
c gate 91 -87 -90 0
-87 -91 0
-90 -91 0
87 90 91 0
c gate 92 7 -23 0
7 -92 0
-23 -92 0
-7 23 92 0
c gate 93 -69 92 0
-69 -93 0
92 -93 0
69 -92 93 0
c gate 94 -91 -93 0
-91 -94 0
-93 -94 0
91 93 94 0
c gate 95 -69 -94 0
-69 -95 0
-94 -95 0
69 94 95 0
c gate 96 66 -95 0
66 -96 0
-95 -96 0
-66 95 96 0
c gate 97 -63 -96 0
-63 -97 0
-96 -97 0
63 96 97 0
c gate 98 10 -26 0
10 -98 0
-26 -98 0
-10 26 98 0
c gate 99 -62 -98 0
-62 -99 0
-98 -99 0
62 98 99 0
c gate 100 -97 99 0
-97 -100 0
99 -100 0
97 -99 100 0
c gate 101 -62 -100 0
-62 -101 0
-100 -101 0
62 100 101 0
c gate 102 11 27 0
11 -102 0
27 -102 0
-11 -27 102 0
c gate 103 -11 -27 0
-11 -103 0
-27 -103 0
11 27 103 0
c gate 104 -102 -103 0
-102 -104 0
-103 -104 0
102 103 104 0
c gate 105 -11 12 0
-11 -105 0
12 -105 0
11 -12 105 0
c gate 106 -28 105 0
-28 -106 0
105 -106 0
28 -105 106 0
c gate 107 104 -106 0
104 -107 0
-106 -107 0
-104 106 107 0
c gate 108 -12 -28 0
-12 -108 0
-28 -108 0
12 28 108 0
c gate 109 12 28 0
12 -109 0
28 -109 0
-12 -28 109 0
c gate 110 -108 -109 0
-108 -110 0
-109 -110 0
108 109 110 0
c gate 111 -13 -29 0
-13 -111 0
-29 -111 0
13 29 111 0
c gate 112 13 29 0
13 -112 0
29 -112 0
-13 -29 112 0
c gate 113 -111 -112 0
-111 -113 0
-112 -113 0
111 112 113 0
c gate 114 -110 -113 0
-110 -114 0
-113 -114 0
110 113 114 0
c gate 115 -107 114 0
-107 -115 0
114 -115 0
107 -114 115 0
c gate 116 -101 115 0
-101 -116 0
115 -116 0
101 -115 116 0
c gate 117 15 31 0
15 -117 0
31 -117 0
-15 -31 117 0
c gate 118 -15 -31 0
-15 -118 0
-31 -118 0
15 31 118 0
c gate 119 -117 -118 0
-117 -119 0
-118 -119 0
117 118 119 0
c gate 120 16 32 0
16 -120 0
32 -120 0
-16 -32 120 0
c gate 121 -16 -32 0
-16 -121 0
-32 -121 0
16 32 121 0
c gate 122 -120 -121 0
-120 -122 0
-121 -122 0
120 121 122 0
c gate 123 -14 -30 0
-14 -123 0
-30 -123 0
14 30 123 0
c gate 124 14 30 0
14 -124 0
30 -124 0
-14 -30 124 0
c gate 125 -123 -124 0
-123 -125 0
-124 -125 0
123 124 125 0
c gate 126 -122 -125 0
-122 -126 0
-125 -126 0
122 125 126 0
c gate 127 -119 126 0
-119 -127 0
126 -127 0
119 -126 127 0
c gate 128 116 127 0
116 -128 0
127 -128 0
-116 -127 128 0
c gate 129 116 -128 0
116 -129 0
-128 -129 0
-116 128 129 0
c gate 130 101 104 0
101 -130 0
104 -130 0
-101 -104 130 0
c gate 131 -101 -104 0
-101 -131 0
-104 -131 0
101 104 131 0
c gate 132 -130 -131 0
-130 -132 0
-131 -132 0
130 131 132 0
c gate 133 -66 99 0
-66 -133 0
99 -133 0
66 -99 133 0
c gate 134 -98 -133 0
-98 -134 0
-133 -134 0
98 133 134 0
c gate 135 104 -134 0
104 -135 0
-134 -135 0
-104 134 135 0
c gate 136 -132 -135 0
-132 -136 0
-135 -136 0
132 135 136 0
c gate 137 66 -99 0
66 -137 0
-99 -137 0
-66 99 137 0
c gate 138 -133 -137 0
-133 -138 0
-137 -138 0
133 137 138 0
c gate 139 97 -99 0
97 -139 0
-99 -139 0
-97 99 139 0
c gate 140 -100 -139 0
-100 -140 0
-139 -140 0
100 139 140 0
c gate 141 -138 -140 0
-138 -141 0
-140 -141 0
138 140 141 0
c gate 142 138 140 0
138 -142 0
140 -142 0
-138 -140 142 0
c gate 143 -10 -26 0
-10 -143 0
-26 -143 0
10 26 143 0
c gate 144 10 26 0
10 -144 0
26 -144 0
-10 -26 144 0
c gate 145 9 25 0
9 -145 0
25 -145 0
-9 -25 145 0
c gate 146 -144 -145 0
-144 -146 0
-145 -146 0
144 145 146 0
c gate 147 -50 -55 0
-50 -147 0
-55 -147 0
50 55 147 0
c gate 148 90 -147 0
90 -148 0
-147 -148 0
-90 147 148 0
c gate 149 69 148 0
69 -149 0
148 -149 0
-69 -148 149 0
c gate 150 -67 88 0
-67 -150 0
88 -150 0
67 -88 150 0
c gate 151 -9 -25 0
-9 -151 0
-25 -151 0
9 25 151 0
c gate 152 -68 -151 0
-68 -152 0
-151 -152 0
68 151 152 0
c gate 153 -150 152 0
-150 -153 0
152 -153 0
150 -152 153 0
c gate 154 -149 153 0
-149 -154 0
153 -154 0
149 -153 154 0
c gate 155 146 -154 0
146 -155 0
-154 -155 0
-146 154 155 0
c gate 156 -143 -155 0
-143 -156 0
-155 -156 0
143 155 156 0
c gate 157 -102 -156 0
-102 -157 0
-156 -157 0
102 156 157 0
c gate 158 -103 -157 0
-103 -158 0
-157 -158 0
103 157 158 0
c gate 159 -109 -158 0
-109 -159 0
-158 -159 0
109 158 159 0
c gate 160 -108 -159 0
-108 -160 0
-159 -160 0
108 159 160 0
c gate 161 -113 160 0
-113 -161 0
160 -161 0
113 -160 161 0
c gate 162 110 113 0
110 -162 0
113 -162 0
-110 -113 162 0
c gate 163 158 162 0
158 -163 0
162 -163 0
-158 -162 163 0
c gate 164 -161 -163 0
-161 -164 0
-163 -164 0
161 163 164 0
c gate 165 -55 -148 0
-55 -165 0
-148 -165 0
55 148 165 0
c gate 166 36 37 0
36 -166 0
37 -166 0
-36 -37 166 0
c gate 167 165 166 0
165 -167 0
166 -167 0
-165 -166 167 0
c gate 168 -149 -167 0
-149 -168 0
-167 -168 0
149 167 168 0
c gate 169 164 168 0
164 -169 0
168 -169 0
-164 -168 169 0
c gate 170 146 -153 0
146 -170 0
-153 -170 0
-146 153 170 0
c gate 171 -103 -143 0
-103 -171 0
-143 -171 0
103 143 171 0
c gate 172 110 171 0
110 -172 0
171 -172 0
-110 -171 172 0
c gate 173 -170 172 0
-170 -173 0
172 -173 0
170 -172 173 0
c gate 174 -158 173 0
-158 -174 0
173 -174 0
158 -173 174 0
c gate 175 149 -174 0
149 -175 0
-174 -175 0
-149 174 175 0
c gate 176 164 -175 0
164 -176 0
-175 -176 0
-164 175 176 0
c gate 177 -112 -160 0
-112 -177 0
-160 -177 0
112 160 177 0
c gate 178 -111 -177 0
-111 -178 0
-177 -178 0
111 177 178 0
c gate 179 125 -178 0
125 -179 0
-178 -179 0
-125 178 179 0
c gate 180 -123 -179 0
-123 -180 0
-179 -180 0
123 179 180 0
c gate 181 -117 -180 0
-117 -181 0
-180 -181 0
117 180 181 0
c gate 182 -118 -181 0
-118 -182 0
-181 -182 0
118 181 182 0
c gate 183 122 -182 0
122 -183 0
-182 -183 0
-122 182 183 0
c gate 184 -122 182 0
-122 -184 0
182 -184 0
122 -182 184 0
c gate 185 -183 -184 0
-183 -185 0
-184 -185 0
183 184 185 0
c gate 186 -109 -112 0
-109 -186 0
-112 -186 0
109 112 186 0
c gate 187 125 186 0
125 -187 0
186 -187 0
-125 -186 187 0
c gate 188 -125 -186 0
-125 -188 0
-186 -188 0
125 186 188 0
c gate 189 -187 -188 0
-187 -189 0
-188 -189 0
187 188 189 0
c gate 190 -125 178 0
-125 -190 0
178 -190 0
125 -178 190 0
c gate 191 -179 -190 0
-179 -191 0
-190 -191 0
179 190 191 0
c gate 192 189 -191 0
189 -192 0
-191 -192 0
-189 191 192 0
c gate 193 -161 -192 0
-161 -193 0
-192 -193 0
161 192 193 0
c gate 194 -189 191 0
-189 -194 0
191 -194 0
189 -191 194 0
c gate 195 -192 -194 0
-192 -195 0
-194 -195 0
192 194 195 0
c gate 196 -190 -195 0
-190 -196 0
-195 -196 0
190 195 196 0
c gate 197 -193 -196 0
-193 -197 0
-196 -197 0
193 196 197 0
c gate 198 180 -187 0
180 -198 0
-187 -198 0
-180 187 198 0
c gate 199 -119 -180 0
-119 -199 0
-180 -199 0
119 180 199 0
c gate 200 -123 -187 0
-123 -200 0
-187 -200 0
123 187 200 0
c gate 201 119 -200 0
119 -201 0
-200 -201 0
-119 200 201 0
c gate 202 -199 -201 0
-199 -202 0
-201 -202 0
199 201 202 0
c gate 203 -198 202 0
-198 -203 0
202 -203 0
198 -202 203 0
c gate 204 -197 -203 0
-197 -204 0
-203 -204 0
197 203 204 0
c gate 205 -185 -204 0
-185 -205 0
-204 -205 0
185 204 205 0
c gate 206 185 204 0
185 -206 0
204 -206 0
-185 -204 206 0
c gate 207 -118 -201 0
-118 -207 0
-201 -207 0
118 201 207 0
c gate 208 122 -207 0
122 -208 0
-207 -208 0
-122 207 208 0
c gate 209 -122 207 0
-122 -209 0
207 -209 0
122 -207 209 0
c gate 210 -208 -209 0
-208 -210 0
-209 -210 0
208 209 210 0
c gate 211 -206 210 0
-206 -211 0
210 -211 0
206 -210 211 0
c gate 212 -205 -211 0
-205 -212 0
-211 -212 0
205 211 212 0
c gate 213 -176 212 0
-176 -213 0
212 -213 0
176 -212 213 0
c gate 214 -169 -213 0
-169 -214 0
-213 -214 0
169 213 214 0
c gate 215 86 90 0
86 -215 0
90 -215 0
-86 -90 215 0
c gate 216 -91 -215 0
-91 -216 0
-215 -216 0
91 215 216 0
c gate 217 182 208 0
182 -217 0
208 -217 0
-182 -208 217 0
c gate 218 216 -217 0
216 -218 0
-217 -218 0
-216 217 218 0
c gate 219 214 218 0
214 -219 0
218 -219 0
-214 -218 219 0
c gate 220 -120 -208 0
-120 -220 0
-208 -220 0
120 208 220 0
c gate 221 216 220 0
216 -221 0
220 -221 0
-216 -220 221 0
c gate 222 183 221 0
183 -222 0
221 -222 0
-183 -221 222 0
c gate 223 -215 -222 0
-215 -223 0
-222 -223 0
215 222 223 0
c gate 224 -219 223 0
-219 -224 0
223 -224 0
219 -223 224 0
c gate 225 -91 224 0
-91 -225 0
224 -225 0
91 -224 225 0
c gate 226 -95 -225 0
-95 -226 0
-225 -226 0
95 225 226 0
c gate 227 -63 -65 0
-63 -227 0
-65 -227 0
63 65 227 0
c gate 228 95 -227 0
95 -228 0
-227 -228 0
-95 227 228 0
c gate 229 -226 -228 0
-226 -229 0
-228 -229 0
226 228 229 0
c gate 230 -142 -229 0
-142 -230 0
-229 -230 0
142 229 230 0
c gate 231 -141 -230 0
-141 -231 0
-230 -231 0
141 230 231 0
c gate 232 -136 231 0
-136 -232 0
231 -232 0
136 -231 232 0
c gate 233 -101 135 0
-101 -233 0
135 -233 0
101 -135 233 0
c gate 234 -131 -233 0
-131 -234 0
-233 -234 0
131 233 234 0
c gate 235 -232 234 0
-232 -235 0
234 -235 0
232 -234 235 0
c gate 236 -116 -235 0
-116 -236 0
-235 -236 0
116 235 236 0
c gate 237 -129 -236 0
-129 -237 0
-236 -237 0
129 236 237 0
c gate 238 56 -59 0
56 -238 0
-59 -238 0
-56 59 238 0
c gate 239 -237 238 0
-237 -239 0
238 -239 0
237 -238 239 0
c gate 240 36 -71 0
36 -240 0
-71 -240 0
-36 71 240 0
c gate 241 -74 240 0
-74 -241 0
240 -241 0
74 -240 241 0
c gate 242 -237 241 0
-237 -242 0
241 -242 0
237 -241 242 0
c gate 243 -238 -242 0
-238 -243 0
-242 -243 0
238 242 243 0
c gate 244 -239 -243 0
-239 -244 0
-243 -244 0
239 243 244 0
c gate 245 61 -244 0
61 -245 0
-244 -245 0
-61 244 245 0
c gate 246 -61 244 0
-61 -246 0
244 -246 0
61 -244 246 0
c gate 247 -245 -246 0
-245 -247 0
-246 -247 0
245 246 247 0
c PO
247 0
